SPARKNaCl/why3-z3/sparknacl-hashing-rfsb509.adb_213_13_loop_invariant_preserv2_1.smt2
;; produced by z3_gnatprove.drv ;;
(set-info :smt-lib-version 2.5)
(set-info :source |VC generated by SPARK 2014|)
(set-info :category industrial)
(set-info :status unknown)
;;; generated by SMT-LIB2 driver
;;; SMT-LIB2 driver: bit-vectors, common part
;;; SMT-LIB2: integer arithmetic
(declare-datatypes ()
  ((int__ref (int__refqtmk (int__content Int)))))

(declare-sort tinteger_32B 0)

;; "tinteger_32B'int"
(declare-fun tinteger_32Bqtint (tinteger_32B) Int)

;; "tinteger_32B'axiom"
(assert
  (forall ((i tinteger_32B))
    (and
      (<= (- 2147483648) (tinteger_32Bqtint i))
      (<= (tinteger_32Bqtint i) 2147483647))))

;; "in_range"
(define-fun in_range ((x Int)) Bool
  (and (<= (- 2147483648) x) (<= x 2147483647)))

;; "to_rep"
(define-fun to_rep ((x tinteger_32B)) Int
  (tinteger_32Bqtint x))

;; "of_rep"
(declare-fun of_rep (Int) tinteger_32B)

;; "inversion_axiom"
(assert
  (forall ((x tinteger_32B))
    (! (= (of_rep (to_rep x)) x) :pattern ((to_rep x)) )))

;; "range_axiom"
(assert
  (forall ((x tinteger_32B))
    (! (in_range (to_rep x)) :pattern ((to_rep x)) )))

;; "coerce_axiom"
(assert
  (forall ((x Int))
    (! (=> (in_range x) (= (to_rep (of_rep x)) x)) :pattern ((to_rep
                                                               (of_rep x))) )))

;; "in_range"
(define-fun in_range1 ((x Int)) Bool
  (and (<= 0 x) (<= x 2147483647)))

(declare-sort byte 0)

;; "to_rep"
(declare-fun to_rep1 (byte) (_ BitVec 8))

;; "of_rep"
(declare-fun of_rep1 ((_ BitVec 8)) byte)

;; "inversion_axiom"
(assert
  (forall ((x byte)) (! (= (of_rep1 (to_rep1 x)) x) :pattern ((to_rep1 x)) )))

;; "range_axiom"
(assert true)

;; "coerce_axiom"
(assert
  (forall ((x (_ BitVec 8)))
    (! (= (to_rep1 (of_rep1 x)) x) :pattern ((to_rep1 (of_rep1 x))) )))

(declare-sort map1 0)

(declare-datatypes ()
  ((map__ref (map__refqtmk (map__content map1)))))

;; "has_bounds"
(declare-fun has_bounds (map1
  Int
  Int) Bool)

;; "get"
(declare-fun get (map1
  Int) byte)

;; "slide"
(declare-fun slide (map1
  Int
  Int) map1)

;; "slide_eq"
(assert
  (forall ((a map1) (first Int))
    (! (= (slide a first first) a) :pattern ((slide a first first)) )))

;; "slide_def"
(assert
  (forall ((a map1) (old_first Int) (new_first Int))
    (! (and
         (forall ((i Int))
           (! (= (get (slide a old_first new_first) i) (get
                                                         a
                                                         (- i (- new_first old_first)))) :pattern (
           (get
             (slide a old_first new_first)
             i)) ))
         (forall ((new_last Int))
           (! (=>
                (has_bounds a old_first (- new_last (- new_first old_first)))
                (has_bounds (slide a old_first new_first) new_first new_last)) :pattern (
           (has_bounds
             (slide a old_first new_first)
             new_first
             new_last)) ))) :pattern ((slide a old_first new_first)) )))

;; "slice"
(declare-fun slice (map1
  Int
  Int) map1)

;; "slice_eq"
(assert
  (forall ((a map1) (f Int) (l Int))
    (! (=> (has_bounds a f l) (= (slice a f l) a)) :pattern ((slice a f l)
    (has_bounds a f l)) )))

;; "slice_slice"
(assert
  (forall ((a map1) (f1 Int) (l1 Int) (f2 Int) (l2 Int))
    (! (=>
         (and (<= f1 f2) (<= l2 l1))
         (= (slice (slice a f1 l1) f2 l2) (slice a f2 l2))) :pattern (
    (slice
      (slice a f1 l1)
      f2
      l2)) )))

;; "slice_def"
(assert
  (forall ((a map1) (f Int) (l Int))
    (! (forall ((i Int))
         (! (=> (and (<= f i) (<= i l)) (= (get (slice a f l) i) (get a i))) :pattern (
         (get
           (slice a f l)
           i)) :pattern ((get a i)) )) :pattern ((slice a f l)) )))

;; "slice_has_bounds"
(assert
  (forall ((a map1) (f Int) (l Int))
    (! (has_bounds (slice a f l) f l) :pattern ((has_bounds
                                                  (slice a f l)
                                                  f
                                                  l)) )))

(declare-datatypes ()
  ((t (tqtmk (rec__first tinteger_32B)(rec__last tinteger_32B)))))

;; "mk"
(declare-fun mk (Int
  Int) t)

;; "mk_def"
(assert
  (forall ((f Int) (l Int))
    (! (=>
         (in_range f)
         (=>
           (in_range l)
           (and
             (= (to_rep (rec__first (mk f l))) f)
             (= (to_rep (rec__last (mk f l))) l)))) :pattern ((mk f l)) )))

;; "dynamic_property"
(define-fun dynamic_property ((range_first Int) (range_last Int) (low Int) (high Int)) Bool
  (and
    (in_range low)
    (and
      (in_range high)
      (=> (<= low high) (and (in_range1 low) (in_range1 high))))))

(declare-datatypes ()
  ((us_t (us_tqtmk (elts map1)(rt t)))))

;; "to_array"
(define-fun to_array ((a us_t)) map1
  (elts a))

;; "of_array"
(define-fun of_array ((a map1) (f Int) (l Int)) us_t
  (us_tqtmk a (mk f l)))

;; "first"
(define-fun first ((a us_t)) Int
  (to_rep (rec__first (rt a))))

;; "last"
(define-fun last ((a us_t)) Int
  (to_rep (rec__last (rt a))))

;; "length"
(define-fun length ((a us_t)) Int
  (ite (<= (first a) (last a)) (+ (- (last a) (first a)) 1) 0))

;; "well_formed"
(define-fun well_formed ((a us_t)) Bool
  (has_bounds
    (elts a)
    (to_rep (rec__first (rt a)))
    (to_rep (rec__last (rt a)))))

;; "dynamic_invariant"
(define-fun dynamic_invariant ((temp___expr_371 map1) (temp___is_init_367 Bool) (temp___skip_constant_368 Bool) (temp___do_toplevel_369 Bool) (temp___do_typ_inv_370 Bool)) Bool
  (and
    (=>
      (= temp___is_init_367 true)
      (=>
        (= temp___do_toplevel_369 true)
        (= (bvand (to_rep1 (get temp___expr_371 63)) #xE0) #x00)))
    (has_bounds temp___expr_371 0 63)))

(declare-const input us_t)

;; "in_range"
(define-fun in_range2 ((x Int)) Bool
  (and (<= (- 2147483648) x) (<= x 2147483647)))

;; "dynamic_invariant"
(define-fun dynamic_invariant1 ((temp___expr_225 us_t) (temp___is_init_221 Bool) (temp___skip_constant_222 Bool) (temp___do_toplevel_223 Bool) (temp___do_typ_inv_224 Bool)) Bool
  (and
    (=>
      (not (= temp___skip_constant_222 true))
      (dynamic_property
        0
        2147483647
        (first temp___expr_225)
        (last temp___expr_225)))
    (well_formed temp___expr_225)))

;; "in_range"
(define-fun in_range3 ((x Int)) Bool
  (and (<= 0 x) (<= x 47)))

;; "in_range"
(define-fun in_range4 ((x Int)) Bool
  (and (<= (- 9223372036854775808) x) (<= x 9223372036854775807)))

;; "in_range"
(define-fun in_range5 ((x Int)) Bool
  (and (<= (- 9223372036854775808) x) (<= x 9223372036854775807)))

(declare-const output map1)

(declare-const bytes_remaining Int)

(declare-const block map1)

;; "block'unused"
(define-fun blockqtunused () map__ref
  (map__refqtmk block))

;; "output'unused"
(define-fun outputqtunused () map__ref
  (map__refqtmk output))

;; "Assume"
(assert (dynamic_invariant output true false true true))

;; "Assume"
(assert (in_range3 bytes_remaining))

;; "Assume"
(assert (dynamic_invariant1 input true false true true))

;; "Assume"
(assert true)

;; "o"
(define-fun o () Int
  (length input))

;; "length'result'unused"
(define-fun lengthqtresultqtunused () Int
  o)

;; "Ensures"
(assert (in_range4 o))

;; "range_check_'result'unused"
(define-fun range_check_qtresultqtunused () Int
  o)

(declare-const remainder Int)

;; "remainder'unused"
(define-fun remainderqtunused () int__ref
  (int__refqtmk remainder))

;; "H"
(assert (= remainder o))

;; "Assume"
(assert (in_range5 remainder))

;; "o"
(define-fun o1 () Int
  (first input))

;; "first'result'unused"
(define-fun firstqtresultqtunused () Int
  o1)

;; "Ensures"
(assert (in_range2 o1))

;; "range_check_'result'unused"
(define-fun range_check_qtresultqtunused1 () Int
  o1)

(declare-const current_byte Int)

;; "current_byte'unused"
(define-fun current_byteqtunused () int__ref
  (int__refqtmk current_byte))

;; "H"
(assert (= current_byte o1))

;; "Assume"
(assert (in_range2 current_byte))

;; "Assume"
(assert true)

;; "Assume"
(assert (has_bounds block 0 47))

;; "int__content'result'unused"
(define-fun int__contentqtresultqtunused () Int
  remainder)

;; "infix >='result'unused"
(define-fun infix_gteqqtresultqtunused () Bool
  (ite (<= 48 remainder) true false))

;; "H"
(assert (<= 48 remainder))

;; "temp___loop_entry_936'unused"
(define-fun temp___loop_entry_936qtunused () map1
  output)

;; "map__content'result'unused"
(define-fun map__contentqtresultqtunused () map1
  output)

;; "temp___loop_entry_934'unused"
(define-fun temp___loop_entry_934qtunused () map1
  block)

;; "map__content'result'unused"
(define-fun map__contentqtresultqtunused1 () map1
  block)

;; "temp___loop_entry_932'unused"
(define-fun temp___loop_entry_932qtunused () Int
  current_byte)

;; "int__content'result'unused"
(define-fun int__contentqtresultqtunused1 () Int
  current_byte)

;; "temp___loop_entry_931'unused"
(define-fun temp___loop_entry_931qtunused () Int
  remainder)

;; "int__content'result'unused"
(define-fun int__contentqtresultqtunused2 () Int
  remainder)

;; "int__content'result'unused"
(define-fun int__contentqtresultqtunused3 () Int
  current_byte)

;; "o"
(define-fun o2 () Int
  (last input))

;; "last'result'unused"
(define-fun lastqtresultqtunused () Int
  o2)

;; "o"
(define-fun o3 () Int
  (- o2 48))

;; "infix -'result'unused"
(define-fun infix_mnqtresultqtunused () Int
  o3)

;; "Ensures"
(assert (in_range o3))

;; "range_check_'result'unused"
(define-fun range_check_qtresultqtunused2 () Int
  o3)

;; "o"
(define-fun o4 () Int
  (+ o3 1))

;; "infix +'result'unused"
(define-fun infix_plqtresultqtunused () Int
  o4)

;; "o"
(define-fun o5 () Bool
  (ite (<= current_byte o4) true false))

;; "infix <='result'unused"
(define-fun infix_lseqqtresultqtunused () Bool
  o5)

;; "o"
(define-fun o6 () Int
  (first input))

;; "first'result'unused"
(define-fun firstqtresultqtunused1 () Int
  o6)

;; "o"
(define-fun o7 () Bool
  (ite (<= o6 current_byte) true false))

;; "infix <='result'unused"
(define-fun infix_lseqqtresultqtunused1 () Bool
  o7)

;; "o"
(define-fun o8 () Bool
  (and o7 o5))

;; "andb'result'unused"
(define-fun andbqtresultqtunused () Bool
  o8)

;; "int__content'result'unused"
(define-fun int__contentqtresultqtunused4 () Int
  remainder)

;; "o"
(define-fun o9 () Int
  (length input))

;; "length'result'unused"
(define-fun lengthqtresultqtunused1 () Int
  o9)

;; "Ensures"
(assert (in_range4 o9))

;; "range_check_'result'unused"
(define-fun range_check_qtresultqtunused3 () Int
  o9)

;; "o"
(define-fun o10 () Bool
  (ite (<= remainder o9) true false))

;; "infix <='result'unused"
(define-fun infix_lseqqtresultqtunused2 () Bool
  o10)

;; "o"
(define-fun o11 () Bool
  (ite (<= 48 remainder) true false))

;; "infix <='result'unused"
(define-fun infix_lseqqtresultqtunused3 () Bool
  o11)

;; "o"
(define-fun o12 () Bool
  (and o11 o10))

;; "andb'result'unused"
(define-fun andbqtresultqtunused1 () Bool
  o12)

;; "o"
(define-fun o13 () Int
  (last input))

;; "last'result'unused"
(define-fun lastqtresultqtunused1 () Int
  o13)

;; "o"
(define-fun o14 () Int
  (+ o13 1))

;; "infix +'result'unused"
(define-fun infix_plqtresultqtunused1 () Int
  o14)

;; "int__content'result'unused"
(define-fun int__contentqtresultqtunused5 () Int
  current_byte)

;; "int__content'result'unused"
(define-fun int__contentqtresultqtunused6 () Int
  remainder)

;; "o"
(define-fun o15 () Int
  (+ remainder current_byte))

;; "infix +'result'unused"
(define-fun infix_plqtresultqtunused2 () Int
  o15)

;; "Ensures"
(assert (in_range4 o15))

;; "range_check_'result'unused"
(define-fun range_check_qtresultqtunused4 () Int
  o15)

;; "o"
(define-fun o16 () Bool
  (ite (= o15 o14) true false))

;; "infix ='result'unused"
(define-fun infix_eqqtresultqtunused () Bool
  o16)

;; "o"
(define-fun o17 () Bool
  (and o16 o12))

;; "andb'result'unused"
(define-fun andbqtresultqtunused2 () Bool
  o17)

;; "andb'result'unused"
(define-fun andbqtresultqtunused3 () Bool
  (and o17 o8))

(declare-const output1 map1)

(declare-const remainder1 Int)

(declare-const current_byte1 Int)

(declare-const block1 map1)

;; "current_byte'unused"
(define-fun current_byteqtunused1 () int__ref
  (int__refqtmk current_byte1))

;; "remainder'unused"
(define-fun remainderqtunused1 () int__ref
  (int__refqtmk remainder1))

;; "output'unused"
(define-fun outputqtunused1 () map__ref
  (map__refqtmk output1))

;; "LoopInvariant"
(assert
  (and
    (and
      (= (+ remainder1 current_byte1) (+ (last input) 1))
      (and (<= 48 remainder1) (<= remainder1 (length input))))
    (and
      (<= (first input) current_byte1)
      (<= current_byte1 (+ (- (last input) 48) 1)))))

;; "loop_var___33672'unused"
(define-fun loop_var___33672qtunused () Int
  current_byte1)

;; "int__content'result'unused"
(define-fun int__contentqtresultqtunused7 () Int
  current_byte1)

;; "loop_var___33689'unused"
(define-fun loop_var___33689qtunused () Int
  remainder1)

;; "int__content'result'unused"
(define-fun int__contentqtresultqtunused8 () Int
  remainder1)

;; "Assume"
(assert
  (= (and (ite (and
                 (and
                   (and (in_range5 remainder1) (in_range2 current_byte1))
                   (has_bounds block1 0 47))
                 (dynamic_invariant output1 true true true true))
            true
            false) (ite (<= 48 remainder1) true false)) true))

;; "int__content'result'unused"
(define-fun int__contentqtresultqtunused9 () Int
  current_byte1)

;; "o"
(define-fun o18 () Int
  (+ current_byte1 47))

;; "infix +'result'unused"
(define-fun infix_plqtresultqtunused3 () Int
  o18)

;; "Ensures"
(assert (in_range o18))

;; "range_check_'result'unused"
(define-fun range_check_qtresultqtunused5 () Int
  o18)

;; "int__content'result'unused"
(define-fun int__contentqtresultqtunused10 () Int
  current_byte1)

;; "Assert"
(assert
  (=>
    (<= current_byte1 o18)
    (and
      (and (<= (first input) current_byte1) (<= current_byte1 (last input)))
      (and (<= (first input) o18) (<= o18 (last input))))))

;; "o"
(define-fun o19 () map1
  (to_array input))

;; "to_array'result'unused"
(define-fun to_arrayqtresultqtunused () map1
  o19)

;; "o"
(define-fun o20 () map1
  (slice o19 current_byte1 o18))

;; "slice'result'unused"
(define-fun sliceqtresultqtunused () map1
  o20)

;; "temp___926"
(define-fun temp___926 () us_t
  (of_array o20 current_byte1 o18))

;; "of_array'result'unused"
(define-fun of_arrayqtresultqtunused () us_t
  temp___926)

;; "o"
(define-fun o21 () Int
  current_byte1)

;; "first'result'unused"
(define-fun firstqtresultqtunused2 () Int
  o21)

;; "o"
(define-fun o22 () map1
  o20)

;; "to_array'result'unused"
(define-fun to_arrayqtresultqtunused1 () map1
  o22)

;; "temp___927"
(define-fun temp___927 () map1
  (slide o22 o21 0))

;; "slide'result'unused"
(define-fun slideqtresultqtunused () map1
  temp___927)

;; "Assert"
(assert
  (ite (<= current_byte1 o18)
    (and (<= 0 47) (= (- o18 current_byte1) (- 47 0)))
    (< 47 0)))

(declare-const block2 map1)

;; "block'unused"
(define-fun blockqtunused1 () map__ref
  (map__refqtmk block2))

;; "H"
(assert (= block2 temp___927))

;; "map__content'result'unused"
(define-fun map__contentqtresultqtunused2 () map1
  output1)

;; "map__content'result'unused"
(define-fun map__contentqtresultqtunused3 () map1
  block2)

(declare-const output2 map1)

;; "H"
(assert (dynamic_invariant output2 true true true true))

;; "H"
(assert true)

;; "H"
(assert true)

;; "Assert"
(assert (<= 48 remainder1))

;; "int__content'result'unused"
(define-fun int__contentqtresultqtunused11 () Int
  remainder1)

;; "o"
(define-fun o23 () Int
  (- remainder1 48))

;; "infix -'result'unused"
(define-fun infix_mnqtresultqtunused1 () Int
  o23)

;; "Ensures"
(assert (in_range4 o23))

;; "range_check_'result'unused"
(define-fun range_check_qtresultqtunused6 () Int
  o23)

(declare-const remainder2 Int)

;; "remainder'unused"
(define-fun remainderqtunused2 () int__ref
  (int__refqtmk remainder2))

;; "H"
(assert (= remainder2 o23))

;; "int__content'result'unused"
(define-fun int__contentqtresultqtunused12 () Int
  remainder2)

;; "infix <'result'unused"
(define-fun infix_lsqtresultqtunused () Bool
  (ite (< remainder2 48) true false))

;; "H"
(assert (not (< remainder2 48)))

;; "int__content'result'unused"
(define-fun int__contentqtresultqtunused13 () Int
  current_byte1)

;; "o"
(define-fun o24 () Int
  (+ current_byte1 48))

;; "infix +'result'unused"
(define-fun infix_plqtresultqtunused4 () Int
  o24)

;; "Ensures"
(assert (in_range o24))

;; "range_check_'result'unused"
(define-fun range_check_qtresultqtunused7 () Int
  o24)

(declare-const current_byte2 Int)

;; "current_byte'unused"
(define-fun current_byteqtunused2 () int__ref
  (int__refqtmk current_byte2))

;; "H"
(assert (= current_byte2 o24))

;; "int__content'result'unused"
(define-fun int__contentqtresultqtunused14 () Int
  remainder2)

;; "infix >='result'unused"
(define-fun infix_gteqqtresultqtunused1 () Bool
  (ite (<= 48 remainder2) true false))

;; "H"
(assert (<= 48 remainder2))

;; "int__content'result'unused"
(define-fun int__contentqtresultqtunused15 () Int
  current_byte2)

;; "o"
(define-fun o25 () Int
  (last input))

;; "last'result'unused"
(define-fun lastqtresultqtunused2 () Int
  o25)

;; "o"
(define-fun o26 () Int
  (- o25 48))

;; "infix -'result'unused"
(define-fun infix_mnqtresultqtunused2 () Int
  o26)

;; "Ensures"
(assert (in_range o26))

;; "range_check_'result'unused"
(define-fun range_check_qtresultqtunused8 () Int
  o26)

;; "o"
(define-fun o27 () Int
  (+ o26 1))

;; "infix +'result'unused"
(define-fun infix_plqtresultqtunused5 () Int
  o27)

;; "o"
(define-fun o28 () Bool
  (ite (<= current_byte2 o27) true false))

;; "infix <='result'unused"
(define-fun infix_lseqqtresultqtunused4 () Bool
  o28)

;; "o"
(define-fun o29 () Int
  (first input))

;; "first'result'unused"
(define-fun firstqtresultqtunused3 () Int
  o29)

;; "o"
(define-fun o30 () Bool
  (ite (<= o29 current_byte2) true false))

;; "infix <='result'unused"
(define-fun infix_lseqqtresultqtunused5 () Bool
  o30)

;; "o"
(define-fun o31 () Bool
  (and o30 o28))

;; "andb'result'unused"
(define-fun andbqtresultqtunused4 () Bool
  o31)

;; "int__content'result'unused"
(define-fun int__contentqtresultqtunused16 () Int
  remainder2)

;; "o"
(define-fun o32 () Int
  (length input))

;; "length'result'unused"
(define-fun lengthqtresultqtunused2 () Int
  o32)

;; "Ensures"
(assert (in_range4 o32))

;; "range_check_'result'unused"
(define-fun range_check_qtresultqtunused9 () Int
  o32)

;; "o"
(define-fun o33 () Bool
  (ite (<= remainder2 o32) true false))

;; "infix <='result'unused"
(define-fun infix_lseqqtresultqtunused6 () Bool
  o33)

;; "o"
(define-fun o34 () Bool
  (ite (<= 48 remainder2) true false))

;; "infix <='result'unused"
(define-fun infix_lseqqtresultqtunused7 () Bool
  o34)

;; "o"
(define-fun o35 () Bool
  (and o34 o33))

;; "andb'result'unused"
(define-fun andbqtresultqtunused5 () Bool
  o35)

;; "o"
(define-fun o36 () Int
  (last input))

;; "last'result'unused"
(define-fun lastqtresultqtunused3 () Int
  o36)

;; "o"
(define-fun o37 () Int
  (+ o36 1))

;; "infix +'result'unused"
(define-fun infix_plqtresultqtunused6 () Int
  o37)

;; "int__content'result'unused"
(define-fun int__contentqtresultqtunused17 () Int
  current_byte2)

;; "int__content'result'unused"
(define-fun int__contentqtresultqtunused18 () Int
  remainder2)

;; "o"
(define-fun o38 () Int
  (+ remainder2 current_byte2))

;; "infix +'result'unused"
(define-fun infix_plqtresultqtunused7 () Int
  o38)

;; "Ensures"
(assert (in_range4 o38))

;; "range_check_'result'unused"
(define-fun range_check_qtresultqtunused10 () Int
  o38)

;; "o"
(define-fun o39 () Bool
  (ite (= o38 o37) true false))

;; "infix ='result'unused"
(define-fun infix_eqqtresultqtunused1 () Bool
  o39)

;; "o"
(define-fun o40 () Bool
  (and o39 o35))

;; "andb'result'unused"
(define-fun andbqtresultqtunused6 () Bool
  o40)

;; "andb'result'unused"
(define-fun andbqtresultqtunused7 () Bool
  (and o40 o31))

;; "loop_var_new___33689'unused"
(define-fun loop_var_new___33689qtunused () Int
  remainder2)

;; "int__content'result'unused"
(define-fun int__contentqtresultqtunused19 () Int
  remainder2)

;; "loop_var_new___33672'unused"
(define-fun loop_var_new___33672qtunused () Int
  current_byte2)

;; "int__content'result'unused"
(define-fun int__contentqtresultqtunused20 () Int
  current_byte2)

;; "H"
(assert
  (or
    (< current_byte1 current_byte2)
    (and (= current_byte2 current_byte1) (< remainder2 remainder1))))

;; Goal "def'vc"
;; File "sparknacl-hashing-rfsb509.adb", line 60, characters 0-0
(assert
  (not (<= 48 remainder2)))

(check-sat)
